Ga atom in a box
 1.0000000000000000
    12.0000000000000000    0.0000000000000000    0.0000000000000000
     0.0000000000000000   12.0000000000000000    0.0000000000000000
     0.0000000000000000    0.0000000000000000   12.0000000000000000 
1
Cartesian
  0.0000000000000000  0.0000000000000000  0.0000000000000000 