Ga 
 1.0000000000000000
    12.0000000000000000    0.0000000000000000    0.0000000000000000
     0.0000000000000000   12.0000000000000000    0.0000000000000000
     0.0000000000000000    0.0000000000000000   12.0000000000000000
 Ga 
   2
Cartesian
  0.0000000000000000  0.0000000000000000  0.0000000000000000
  2.2999999999999998  0.0000000000000000  0.0000000000000000
